
Gurobi 8.1.1 (win64, Python) logging started 08/21/20 19:54:42


--------------------------------------------
Warning: your license will expire in 6 days
--------------------------------------------

Academic license - for non-commercial use only
